% Logging successfully configured
%%%mzn-stat: initTime=0.007467427
%%%mzn-stat: objective=638
%%%mzn-stat: nodes=409845
%%%mzn-stat: restarts=0
%%%mzn-stat: peakDepth=314
%%%mzn-stat: solveTime=253.790940509
%%%mzn-stat: variables=670
%%%mzn-stat: propagators=452
%%%mzn-stat: failures=407041
%%%mzn-stat: propagations=11412066
%%%mzn-stat: nogoods=407041
%%%mzn-stat: numAtomicConstraintsPropagated=0
%%%mzn-stat: circuitNumber1PropagationsTotal=2334672
%%%mzn-stat: circuitNumber1CircuitConflicts=4918
%%%mzn-stat: circuitNumber1AlldiffConflicts=303
%%%mzn-stat: circuitNumber1TotalFixedEdgesAtConflict=212869
%%%mzn-stat: circuitNumber1NumberOfConflicts=5221
%%%mzn-stat: circuitNumber1GacPrunings=4144980
%%%mzn-stat: circuitNumber1PropagationsThatGacPruned=1714279
%%%mzn-stat: circuitNumber1TotalPruningHallSetSize=6173218
%%%mzn-stat: circuitNumber1NumberOfPruningExplanations=4144980
%%%mzn-stat: circuitNumber1MaxPruningHallSetSize=34
%%%mzn-stat: circuitNumber1TotalSccSizeAtPruning=3398686
%%%mzn-stat: circuitNumber1NumberOfSccPruningCalls=1714279
%%%mzn-stat: circuitNumber1TotalVarsInvolvedInPruning=3441457
%%%mzn-stat: circuitNumber1MaxValuesPrunedFromSingleVar=6
%%%mzn-stat: circuitNumber1HallCircuitChecks=5969277
%%%mzn-stat: circuitNumber1HallCircuitPrunings=732638
%%%mzn-stat: circuitNumber1CircuitPreventPrunings=1622058
%%%mzn-stat: AverageConflictSize=7.530730319550119
%%%mzn-stat: NumUnitNogoodsLearned=0
%%%mzn-stat: AverageLearnedNogoodLength=21.38890185509568
%%%mzn-stat: AverageBacktrackAmount=0
%%%mzn-stat: AverageLbd=21.318872054657884
%%%mzn-stat: 2AutonomousSearchNumBackupCalled=285
%%%mzn-stat: 2AutonomousSearchNumPredicatesRemoved=0
%%%mzn-stat: 2AutonomousSearchNumCalls=286
%%%mzn-stat: 2AutonomousSearchNumPredicatesAdded=2009
%%%mzn-stat: 2AutonomousSearchAverageSizeOfHeap=7.024475524475524
%%%mzn-stat: 2AutonomousSearchNumAssignedPredicatesEncountered=2009
%%%mzn-stat-end
maxleg = 638;
succ = array1d(1..50,[6, 14, 7, 9, 18, 12, 10, 11, 15, 16, 19, 33, 20, 37, 3, 31, 13, 2, 26, 22, 29, 21, 1, 5, 48, 4, 30, 34, 45, 40, 35, 8, 25, 46, 36, 49, 39, 47, 41, 23, 28, 32, 44, 17, 50, 42, 27, 24, 43, 38]);
% time elapsed: 259.14 s
----------
%%%mzn-stat: initTime=0.007467427
%%%mzn-stat: objective=357
%%%mzn-stat: nodes=410145
%%%mzn-stat: restarts=0
%%%mzn-stat: peakDepth=314
%%%mzn-stat: solveTime=253.800999852
%%%mzn-stat: variables=670
%%%mzn-stat: propagators=452
%%%mzn-stat: failures=407045
%%%mzn-stat: propagations=11413004
%%%mzn-stat: nogoods=407045
%%%mzn-stat: numAtomicConstraintsPropagated=0
%%%mzn-stat: circuitNumber1PropagationsTotal=2334760
%%%mzn-stat: circuitNumber1CircuitConflicts=4921
%%%mzn-stat: circuitNumber1AlldiffConflicts=303
%%%mzn-stat: circuitNumber1TotalFixedEdgesAtConflict=212954
%%%mzn-stat: circuitNumber1NumberOfConflicts=5224
%%%mzn-stat: circuitNumber1GacPrunings=4145239
%%%mzn-stat: circuitNumber1PropagationsThatGacPruned=1714323
%%%mzn-stat: circuitNumber1TotalPruningHallSetSize=6174578
%%%mzn-stat: circuitNumber1NumberOfPruningExplanations=4145239
%%%mzn-stat: circuitNumber1MaxPruningHallSetSize=34
%%%mzn-stat: circuitNumber1TotalSccSizeAtPruning=3399079
%%%mzn-stat: circuitNumber1NumberOfSccPruningCalls=1714323
%%%mzn-stat: circuitNumber1TotalVarsInvolvedInPruning=3441650
%%%mzn-stat: circuitNumber1MaxValuesPrunedFromSingleVar=6
%%%mzn-stat: circuitNumber1HallCircuitChecks=5969492
%%%mzn-stat: circuitNumber1HallCircuitPrunings=732645
%%%mzn-stat: circuitNumber1CircuitPreventPrunings=1622081
%%%mzn-stat: AverageConflictSize=7.53068088294906
%%%mzn-stat: NumUnitNogoodsLearned=0
%%%mzn-stat: AverageLearnedNogoodLength=21.388775196845558
%%%mzn-stat: AverageBacktrackAmount=0
%%%mzn-stat: AverageLbd=21.31870432016116
%%%mzn-stat: 2AutonomousSearchNumBackupCalled=552
%%%mzn-stat: 2AutonomousSearchNumPredicatesRemoved=0
%%%mzn-stat: 2AutonomousSearchNumCalls=554
%%%mzn-stat: 2AutonomousSearchNumPredicatesAdded=2178
%%%mzn-stat: 2AutonomousSearchAverageSizeOfHeap=7.435018050541516
%%%mzn-stat: 2AutonomousSearchNumAssignedPredicatesEncountered=4119
%%%mzn-stat-end
maxleg = 357;
succ = array1d(1..50,[6, 14, 7, 9, 18, 12, 10, 11, 15, 34, 26, 33, 20, 37, 3, 31, 13, 2, 8, 22, 29, 21, 1, 5, 48, 30, 19, 16, 45, 40, 35, 42, 25, 28, 36, 49, 39, 47, 41, 32, 4, 46, 44, 17, 50, 23, 27, 24, 43, 38]);
% time elapsed: 259.14 s
----------
%%%mzn-stat: initTime=0.007467427
%%%mzn-stat: objective=341
%%%mzn-stat: nodes=410430
%%%mzn-stat: restarts=0
%%%mzn-stat: peakDepth=314
%%%mzn-stat: solveTime=253.806053904
%%%mzn-stat: variables=670
%%%mzn-stat: propagators=452
%%%mzn-stat: failures=407046
%%%mzn-stat: propagations=11413850
%%%mzn-stat: nogoods=407046
%%%mzn-stat: numAtomicConstraintsPropagated=0
%%%mzn-stat: circuitNumber1PropagationsTotal=2334824
%%%mzn-stat: circuitNumber1CircuitConflicts=4922
%%%mzn-stat: circuitNumber1AlldiffConflicts=303
%%%mzn-stat: circuitNumber1TotalFixedEdgesAtConflict=212995
%%%mzn-stat: circuitNumber1NumberOfConflicts=5225
%%%mzn-stat: circuitNumber1GacPrunings=4145405
%%%mzn-stat: circuitNumber1PropagationsThatGacPruned=1714357
%%%mzn-stat: circuitNumber1TotalPruningHallSetSize=6175312
%%%mzn-stat: circuitNumber1NumberOfPruningExplanations=4145405
%%%mzn-stat: circuitNumber1MaxPruningHallSetSize=34
%%%mzn-stat: circuitNumber1TotalSccSizeAtPruning=3399294
%%%mzn-stat: circuitNumber1NumberOfSccPruningCalls=1714357
%%%mzn-stat: circuitNumber1TotalVarsInvolvedInPruning=3441784
%%%mzn-stat: circuitNumber1MaxValuesPrunedFromSingleVar=6
%%%mzn-stat: circuitNumber1HallCircuitChecks=5969643
%%%mzn-stat: circuitNumber1HallCircuitPrunings=732651
%%%mzn-stat: circuitNumber1CircuitPreventPrunings=1622098
%%%mzn-stat: AverageConflictSize=7.530667295588214
%%%mzn-stat: NumUnitNogoodsLearned=0
%%%mzn-stat: AverageLearnedNogoodLength=21.38875458793355
%%%mzn-stat: AverageBacktrackAmount=0
%%%mzn-stat: AverageLbd=21.31866914304526
%%%mzn-stat: 2AutonomousSearchNumBackupCalled=813
%%%mzn-stat: 2AutonomousSearchNumPredicatesRemoved=0
%%%mzn-stat: 2AutonomousSearchNumCalls=816
%%%mzn-stat: 2AutonomousSearchNumPredicatesAdded=2262
%%%mzn-stat: 2AutonomousSearchAverageSizeOfHeap=7.634803921568627
%%%mzn-stat: 2AutonomousSearchNumAssignedPredicatesEncountered=6230
%%%mzn-stat-end
maxleg = 341;
succ = array1d(1..50,[6, 14, 7, 9, 18, 12, 10, 11, 15, 34, 26, 33, 20, 37, 3, 31, 13, 2, 8, 22, 29, 21, 1, 25, 48, 30, 19, 16, 45, 40, 35, 42, 24, 28, 36, 49, 39, 47, 41, 32, 4, 46, 44, 17, 50, 23, 27, 5, 43, 38]);
% time elapsed: 259.14 s
----------
%%%mzn-stat: initTime=0.007467427
%%%mzn-stat: objective=329
%%%mzn-stat: nodes=410717
%%%mzn-stat: restarts=0
%%%mzn-stat: peakDepth=314
%%%mzn-stat: solveTime=253.810712247
%%%mzn-stat: variables=670
%%%mzn-stat: propagators=452
%%%mzn-stat: failures=407047
%%%mzn-stat: propagations=11414672
%%%mzn-stat: nogoods=407047
%%%mzn-stat: numAtomicConstraintsPropagated=0
%%%mzn-stat: circuitNumber1PropagationsTotal=2334888
%%%mzn-stat: circuitNumber1CircuitConflicts=4923
%%%mzn-stat: circuitNumber1AlldiffConflicts=303
%%%mzn-stat: circuitNumber1TotalFixedEdgesAtConflict=213036
%%%mzn-stat: circuitNumber1NumberOfConflicts=5226
%%%mzn-stat: circuitNumber1GacPrunings=4145572
%%%mzn-stat: circuitNumber1PropagationsThatGacPruned=1714392
%%%mzn-stat: circuitNumber1TotalPruningHallSetSize=6176035
%%%mzn-stat: circuitNumber1NumberOfPruningExplanations=4145572
%%%mzn-stat: circuitNumber1MaxPruningHallSetSize=34
%%%mzn-stat: circuitNumber1TotalSccSizeAtPruning=3399532
%%%mzn-stat: circuitNumber1NumberOfSccPruningCalls=1714392
%%%mzn-stat: circuitNumber1TotalVarsInvolvedInPruning=3441919
%%%mzn-stat: circuitNumber1MaxValuesPrunedFromSingleVar=6
%%%mzn-stat: circuitNumber1HallCircuitChecks=5969799
%%%mzn-stat: circuitNumber1HallCircuitPrunings=732657
%%%mzn-stat: circuitNumber1CircuitPreventPrunings=1622116
%%%mzn-stat: AverageConflictSize=7.530653708294128
%%%mzn-stat: NumUnitNogoodsLearned=0
%%%mzn-stat: AverageLearnedNogoodLength=21.38874626271659
%%%mzn-stat: AverageBacktrackAmount=0
%%%mzn-stat: AverageLbd=21.318633966102194
%%%mzn-stat: 2AutonomousSearchNumBackupCalled=1076
%%%mzn-stat: 2AutonomousSearchNumPredicatesRemoved=0
%%%mzn-stat: 2AutonomousSearchNumCalls=1080
%%%mzn-stat: 2AutonomousSearchNumPredicatesAdded=2351
%%%mzn-stat: 2AutonomousSearchAverageSizeOfHeap=7.726851851851852
%%%mzn-stat: 2AutonomousSearchNumAssignedPredicatesEncountered=8345
%%%mzn-stat-end
maxleg = 329;
succ = array1d(1..50,[6, 14, 7, 9, 18, 12, 10, 11, 15, 34, 32, 33, 20, 37, 3, 31, 13, 2, 26, 22, 29, 21, 1, 25, 48, 30, 19, 16, 45, 40, 35, 42, 24, 28, 36, 49, 39, 47, 41, 8, 4, 46, 44, 17, 50, 23, 27, 5, 43, 38]);
% time elapsed: 259.14 s
----------
%%%mzn-stat: initTime=0.007467427
%%%mzn-stat: objective=312
%%%mzn-stat: nodes=411003
%%%mzn-stat: restarts=0
%%%mzn-stat: peakDepth=314
%%%mzn-stat: solveTime=253.816112949
%%%mzn-stat: variables=670
%%%mzn-stat: propagators=452
%%%mzn-stat: failures=407048
%%%mzn-stat: propagations=11415546
%%%mzn-stat: nogoods=407048
%%%mzn-stat: numAtomicConstraintsPropagated=0
%%%mzn-stat: circuitNumber1PropagationsTotal=2334961
%%%mzn-stat: circuitNumber1CircuitConflicts=4923
%%%mzn-stat: circuitNumber1AlldiffConflicts=303
%%%mzn-stat: circuitNumber1TotalFixedEdgesAtConflict=213036
%%%mzn-stat: circuitNumber1NumberOfConflicts=5226
%%%mzn-stat: circuitNumber1GacPrunings=4145765
%%%mzn-stat: circuitNumber1PropagationsThatGacPruned=1714434
%%%mzn-stat: circuitNumber1TotalPruningHallSetSize=6176856
%%%mzn-stat: circuitNumber1NumberOfPruningExplanations=4145765
%%%mzn-stat: circuitNumber1MaxPruningHallSetSize=34
%%%mzn-stat: circuitNumber1TotalSccSizeAtPruning=3399814
%%%mzn-stat: circuitNumber1NumberOfSccPruningCalls=1714434
%%%mzn-stat: circuitNumber1TotalVarsInvolvedInPruning=3442072
%%%mzn-stat: circuitNumber1MaxValuesPrunedFromSingleVar=6
%%%mzn-stat: circuitNumber1HallCircuitChecks=5969973
%%%mzn-stat: circuitNumber1HallCircuitPrunings=732666
%%%mzn-stat: circuitNumber1CircuitPreventPrunings=1622137
%%%mzn-stat: AverageConflictSize=7.530679428470353
%%%mzn-stat: NumUnitNogoodsLearned=0
%%%mzn-stat: AverageLearnedNogoodLength=21.38875513452959
%%%mzn-stat: AverageBacktrackAmount=0
%%%mzn-stat: AverageLbd=21.318598789331972
%%%mzn-stat: 2AutonomousSearchNumBackupCalled=1336
%%%mzn-stat: 2AutonomousSearchNumPredicatesRemoved=0
%%%mzn-stat: 2AutonomousSearchNumCalls=1341
%%%mzn-stat: 2AutonomousSearchNumPredicatesAdded=2453
%%%mzn-stat: 2AutonomousSearchAverageSizeOfHeap=7.807606263982103
%%%mzn-stat: 2AutonomousSearchNumAssignedPredicatesEncountered=10470
%%%mzn-stat-end
maxleg = 312;
succ = array1d(1..50,[6, 14, 7, 9, 18, 12, 10, 11, 15, 34, 32, 33, 20, 37, 3, 31, 13, 2, 26, 22, 29, 21, 46, 25, 48, 30, 19, 16, 45, 40, 35, 23, 24, 28, 36, 49, 39, 47, 41, 42, 4, 8, 44, 17, 50, 1, 27, 5, 43, 38]);
% time elapsed: 259.15 s
----------
%%%mzn-stat: initTime=0.007467427
%%%mzn-stat: objective=308
%%%mzn-stat: nodes=411270
%%%mzn-stat: restarts=0
%%%mzn-stat: peakDepth=314
%%%mzn-stat: solveTime=253.820494481
%%%mzn-stat: variables=670
%%%mzn-stat: propagators=452
%%%mzn-stat: failures=407048
%%%mzn-stat: propagations=11416352
%%%mzn-stat: nogoods=407048
%%%mzn-stat: numAtomicConstraintsPropagated=0
%%%mzn-stat: circuitNumber1PropagationsTotal=2335019
%%%mzn-stat: circuitNumber1CircuitConflicts=4923
%%%mzn-stat: circuitNumber1AlldiffConflicts=303
%%%mzn-stat: circuitNumber1TotalFixedEdgesAtConflict=213036
%%%mzn-stat: circuitNumber1NumberOfConflicts=5226
%%%mzn-stat: circuitNumber1GacPrunings=4145925
%%%mzn-stat: circuitNumber1PropagationsThatGacPruned=1714468
%%%mzn-stat: circuitNumber1TotalPruningHallSetSize=6177574
%%%mzn-stat: circuitNumber1NumberOfPruningExplanations=4145925
%%%mzn-stat: circuitNumber1MaxPruningHallSetSize=34
%%%mzn-stat: circuitNumber1TotalSccSizeAtPruning=3400056
%%%mzn-stat: circuitNumber1NumberOfSccPruningCalls=1714468
%%%mzn-stat: circuitNumber1TotalVarsInvolvedInPruning=3442201
%%%mzn-stat: circuitNumber1MaxValuesPrunedFromSingleVar=6
%%%mzn-stat: circuitNumber1HallCircuitChecks=5970086
%%%mzn-stat: circuitNumber1HallCircuitPrunings=732671
%%%mzn-stat: circuitNumber1CircuitPreventPrunings=1622160
%%%mzn-stat: AverageConflictSize=7.530679428470353
%%%mzn-stat: NumUnitNogoodsLearned=0
%%%mzn-stat: AverageLearnedNogoodLength=21.38875513452959
%%%mzn-stat: AverageBacktrackAmount=0
%%%mzn-stat: AverageLbd=21.318598789331972
%%%mzn-stat: 2AutonomousSearchNumBackupCalled=1583
%%%mzn-stat: 2AutonomousSearchNumPredicatesRemoved=0
%%%mzn-stat: 2AutonomousSearchNumCalls=1589
%%%mzn-stat: 2AutonomousSearchNumPredicatesAdded=2453
%%%mzn-stat: 2AutonomousSearchAverageSizeOfHeap=7.926368785399623
%%%mzn-stat: 2AutonomousSearchNumAssignedPredicatesEncountered=12595
%%%mzn-stat-end
maxleg = 308;
succ = array1d(1..50,[6, 14, 7, 9, 18, 12, 10, 11, 15, 34, 32, 33, 20, 37, 3, 31, 13, 2, 26, 22, 29, 21, 46, 25, 48, 30, 19, 16, 45, 40, 36, 23, 24, 28, 49, 35, 39, 47, 41, 42, 4, 8, 44, 17, 50, 1, 27, 5, 43, 38]);
% time elapsed: 259.15 s
----------
%%%mzn-stat: initTime=0.007467427
%%%mzn-stat: objective=303
%%%mzn-stat: nodes=411554
%%%mzn-stat: restarts=0
%%%mzn-stat: peakDepth=314
%%%mzn-stat: solveTime=253.825247809
%%%mzn-stat: variables=670
%%%mzn-stat: propagators=452
%%%mzn-stat: failures=407049
%%%mzn-stat: propagations=11417217
%%%mzn-stat: nogoods=407049
%%%mzn-stat: numAtomicConstraintsPropagated=0
%%%mzn-stat: circuitNumber1PropagationsTotal=2335082
%%%mzn-stat: circuitNumber1CircuitConflicts=4924
%%%mzn-stat: circuitNumber1AlldiffConflicts=303
%%%mzn-stat: circuitNumber1TotalFixedEdgesAtConflict=213065
%%%mzn-stat: circuitNumber1NumberOfConflicts=5227
%%%mzn-stat: circuitNumber1GacPrunings=4146099
%%%mzn-stat: circuitNumber1PropagationsThatGacPruned=1714504
%%%mzn-stat: circuitNumber1TotalPruningHallSetSize=6178318
%%%mzn-stat: circuitNumber1NumberOfPruningExplanations=4146099
%%%mzn-stat: circuitNumber1MaxPruningHallSetSize=34
%%%mzn-stat: circuitNumber1TotalSccSizeAtPruning=3400303
%%%mzn-stat: circuitNumber1NumberOfSccPruningCalls=1714504
%%%mzn-stat: circuitNumber1TotalVarsInvolvedInPruning=3442341
%%%mzn-stat: circuitNumber1MaxValuesPrunedFromSingleVar=6
%%%mzn-stat: circuitNumber1HallCircuitChecks=5970211
%%%mzn-stat: circuitNumber1HallCircuitPrunings=732676
%%%mzn-stat: circuitNumber1CircuitPreventPrunings=1622183
%%%mzn-stat: AverageConflictSize=7.53066584121322
%%%mzn-stat: NumUnitNogoodsLearned=0
%%%mzn-stat: AverageLearnedNogoodLength=21.388714872165266
%%%mzn-stat: AverageBacktrackAmount=0
%%%mzn-stat: AverageLbd=21.318553785907838
%%%mzn-stat: 2AutonomousSearchNumBackupCalled=1844
%%%mzn-stat: 2AutonomousSearchNumPredicatesRemoved=0
%%%mzn-stat: 2AutonomousSearchNumCalls=1851
%%%mzn-stat: 2AutonomousSearchNumPredicatesAdded=2471
%%%mzn-stat: 2AutonomousSearchAverageSizeOfHeap=7.952998379254457
%%%mzn-stat: 2AutonomousSearchNumAssignedPredicatesEncountered=14721
%%%mzn-stat-end
maxleg = 303;
succ = array1d(1..50,[6, 14, 7, 9, 18, 12, 10, 11, 15, 34, 32, 33, 20, 37, 3, 35, 13, 2, 26, 22, 29, 21, 46, 25, 48, 30, 19, 16, 45, 40, 49, 23, 24, 28, 36, 31, 39, 47, 41, 42, 4, 8, 44, 17, 50, 1, 27, 5, 43, 38]);
% time elapsed: 259.15 s
----------
%%%mzn-stat: initTime=0.007467427
%%%mzn-stat: objective=290
%%%mzn-stat: nodes=411845
%%%mzn-stat: restarts=0
%%%mzn-stat: peakDepth=314
%%%mzn-stat: solveTime=253.830795699
%%%mzn-stat: variables=670
%%%mzn-stat: propagators=452
%%%mzn-stat: failures=407052
%%%mzn-stat: propagations=11418108
%%%mzn-stat: nogoods=407052
%%%mzn-stat: numAtomicConstraintsPropagated=0
%%%mzn-stat: circuitNumber1PropagationsTotal=2335155
%%%mzn-stat: circuitNumber1CircuitConflicts=4926
%%%mzn-stat: circuitNumber1AlldiffConflicts=303
%%%mzn-stat: circuitNumber1TotalFixedEdgesAtConflict=213149
%%%mzn-stat: circuitNumber1NumberOfConflicts=5229
%%%mzn-stat: circuitNumber1GacPrunings=4146284
%%%mzn-stat: circuitNumber1PropagationsThatGacPruned=1714544
%%%mzn-stat: circuitNumber1TotalPruningHallSetSize=6179090
%%%mzn-stat: circuitNumber1NumberOfPruningExplanations=4146284
%%%mzn-stat: circuitNumber1MaxPruningHallSetSize=34
%%%mzn-stat: circuitNumber1TotalSccSizeAtPruning=3400586
%%%mzn-stat: circuitNumber1NumberOfSccPruningCalls=1714544
%%%mzn-stat: circuitNumber1TotalVarsInvolvedInPruning=3442497
%%%mzn-stat: circuitNumber1MaxValuesPrunedFromSingleVar=6
%%%mzn-stat: circuitNumber1HallCircuitChecks=5970317
%%%mzn-stat: circuitNumber1HallCircuitPrunings=732681
%%%mzn-stat: circuitNumber1CircuitPreventPrunings=1622206
%%%mzn-stat: AverageConflictSize=7.53062999321954
%%%mzn-stat: NumUnitNogoodsLearned=0
%%%mzn-stat: AverageLearnedNogoodLength=21.388721834065425
%%%mzn-stat: AverageBacktrackAmount=0
%%%mzn-stat: AverageLbd=21.318460540668024
%%%mzn-stat: 2AutonomousSearchNumBackupCalled=2107
%%%mzn-stat: 2AutonomousSearchNumPredicatesRemoved=0
%%%mzn-stat: 2AutonomousSearchNumCalls=2115
%%%mzn-stat: 2AutonomousSearchNumPredicatesAdded=2760
%%%mzn-stat: 2AutonomousSearchAverageSizeOfHeap=8.008037825059102
%%%mzn-stat: 2AutonomousSearchNumAssignedPredicatesEncountered=16937
%%%mzn-stat-end
maxleg = 290;
succ = array1d(1..50,[6, 14, 7, 9, 18, 12, 10, 32, 15, 34, 8, 33, 20, 37, 3, 35, 13, 2, 11, 22, 29, 21, 1, 25, 48, 19, 30, 16, 45, 26, 49, 40, 24, 28, 36, 31, 39, 47, 41, 42, 4, 46, 44, 17, 50, 23, 27, 5, 43, 38]);
% time elapsed: 259.15 s
----------
%%%mzn-stat: initTime=0.007467427
%%%mzn-stat: objective=288
%%%mzn-stat: nodes=412319
%%%mzn-stat: restarts=0
%%%mzn-stat: peakDepth=314
%%%mzn-stat: solveTime=253.927701951
%%%mzn-stat: variables=670
%%%mzn-stat: propagators=452
%%%mzn-stat: failures=407203
%%%mzn-stat: propagations=11424100
%%%mzn-stat: nogoods=407203
%%%mzn-stat: numAtomicConstraintsPropagated=0
%%%mzn-stat: circuitNumber1PropagationsTotal=2336061
%%%mzn-stat: circuitNumber1CircuitConflicts=5060
%%%mzn-stat: circuitNumber1AlldiffConflicts=305
%%%mzn-stat: circuitNumber1TotalFixedEdgesAtConflict=219260
%%%mzn-stat: circuitNumber1NumberOfConflicts=5365
%%%mzn-stat: circuitNumber1GacPrunings=4147768
%%%mzn-stat: circuitNumber1PropagationsThatGacPruned=1715009
%%%mzn-stat: circuitNumber1TotalPruningHallSetSize=6183174
%%%mzn-stat: circuitNumber1NumberOfPruningExplanations=4147768
%%%mzn-stat: circuitNumber1MaxPruningHallSetSize=41
%%%mzn-stat: circuitNumber1TotalSccSizeAtPruning=3402719
%%%mzn-stat: circuitNumber1NumberOfSccPruningCalls=1715009
%%%mzn-stat: circuitNumber1TotalVarsInvolvedInPruning=3443746
%%%mzn-stat: circuitNumber1MaxValuesPrunedFromSingleVar=6
%%%mzn-stat: circuitNumber1HallCircuitChecks=5972020
%%%mzn-stat: circuitNumber1HallCircuitPrunings=732740
%%%mzn-stat: circuitNumber1CircuitPreventPrunings=1622476
%%%mzn-stat: AverageConflictSize=7.542301996792754
%%%mzn-stat: NumUnitNogoodsLearned=0
%%%mzn-stat: AverageLearnedNogoodLength=21.3957510136222
%%%mzn-stat: AverageBacktrackAmount=0
%%%mzn-stat: AverageLbd=21.31847751612832
%%%mzn-stat: 2AutonomousSearchNumBackupCalled=2354
%%%mzn-stat: 2AutonomousSearchNumPredicatesRemoved=0
%%%mzn-stat: 2AutonomousSearchNumCalls=2363
%%%mzn-stat: 2AutonomousSearchNumPredicatesAdded=4108
%%%mzn-stat: 2AutonomousSearchAverageSizeOfHeap=8.272958104104951
%%%mzn-stat: 2AutonomousSearchNumAssignedPredicatesEncountered=19549
%%%mzn-stat-end
maxleg = 288;
succ = array1d(1..50,[6, 14, 7, 15, 18, 12, 10, 32, 17, 34, 8, 33, 20, 37, 3, 35, 13, 2, 11, 22, 29, 21, 1, 25, 48, 19, 30, 16, 45, 26, 49, 40, 24, 28, 36, 31, 39, 47, 41, 42, 4, 46, 9, 43, 50, 23, 27, 5, 44, 38]);
% time elapsed: 259.23 s
----------
%%%mzn-stat: initTime=0.007467427
%%%mzn-stat: objective=257
%%%mzn-stat: nodes=412574
%%%mzn-stat: restarts=0
%%%mzn-stat: peakDepth=314
%%%mzn-stat: solveTime=253.932590784
%%%mzn-stat: variables=670
%%%mzn-stat: propagators=452
%%%mzn-stat: failures=407203
%%%mzn-stat: propagations=11424931
%%%mzn-stat: nogoods=407203
%%%mzn-stat: numAtomicConstraintsPropagated=0
%%%mzn-stat: circuitNumber1PropagationsTotal=2336120
%%%mzn-stat: circuitNumber1CircuitConflicts=5060
%%%mzn-stat: circuitNumber1AlldiffConflicts=305
%%%mzn-stat: circuitNumber1TotalFixedEdgesAtConflict=219260
%%%mzn-stat: circuitNumber1NumberOfConflicts=5365
%%%mzn-stat: circuitNumber1GacPrunings=4147906
%%%mzn-stat: circuitNumber1PropagationsThatGacPruned=1715039
%%%mzn-stat: circuitNumber1TotalPruningHallSetSize=6183821
%%%mzn-stat: circuitNumber1NumberOfPruningExplanations=4147906
%%%mzn-stat: circuitNumber1MaxPruningHallSetSize=41
%%%mzn-stat: circuitNumber1TotalSccSizeAtPruning=3402922
%%%mzn-stat: circuitNumber1NumberOfSccPruningCalls=1715039
%%%mzn-stat: circuitNumber1TotalVarsInvolvedInPruning=3443864
%%%mzn-stat: circuitNumber1MaxValuesPrunedFromSingleVar=6
%%%mzn-stat: circuitNumber1HallCircuitChecks=5972147
%%%mzn-stat: circuitNumber1HallCircuitPrunings=732744
%%%mzn-stat: circuitNumber1CircuitPreventPrunings=1622490
%%%mzn-stat: AverageConflictSize=7.542301996792754
%%%mzn-stat: NumUnitNogoodsLearned=0
%%%mzn-stat: AverageLearnedNogoodLength=21.3957510136222
%%%mzn-stat: AverageBacktrackAmount=0
%%%mzn-stat: AverageLbd=21.31847751612832
%%%mzn-stat: 2AutonomousSearchNumBackupCalled=2583
%%%mzn-stat: 2AutonomousSearchNumPredicatesRemoved=0
%%%mzn-stat: 2AutonomousSearchNumCalls=2593
%%%mzn-stat: 2AutonomousSearchNumPredicatesAdded=4108
%%%mzn-stat: 2AutonomousSearchAverageSizeOfHeap=8.546471268800618
%%%mzn-stat: 2AutonomousSearchNumAssignedPredicatesEncountered=22161
%%%mzn-stat-end
maxleg = 257;
succ = array1d(1..50,[6, 14, 7, 15, 18, 12, 10, 32, 17, 34, 8, 33, 20, 37, 3, 35, 13, 2, 11, 22, 29, 21, 1, 25, 48, 27, 30, 16, 45, 40, 49, 42, 24, 28, 36, 31, 39, 47, 41, 19, 4, 46, 9, 43, 50, 23, 26, 5, 44, 38]);
% time elapsed: 259.24 s
----------
%%%mzn-stat: initTime=0.007467427
%%%mzn-stat: objective=255
%%%mzn-stat: nodes=413222
%%%mzn-stat: restarts=0
%%%mzn-stat: peakDepth=314
%%%mzn-stat: solveTime=254.145478345
%%%mzn-stat: variables=670
%%%mzn-stat: propagators=452
%%%mzn-stat: failures=407576
%%%mzn-stat: propagations=11436983
%%%mzn-stat: nogoods=407576
%%%mzn-stat: numAtomicConstraintsPropagated=0
%%%mzn-stat: circuitNumber1PropagationsTotal=2338075
%%%mzn-stat: circuitNumber1CircuitConflicts=5334
%%%mzn-stat: circuitNumber1AlldiffConflicts=307
%%%mzn-stat: circuitNumber1TotalFixedEdgesAtConflict=230617
%%%mzn-stat: circuitNumber1NumberOfConflicts=5641
%%%mzn-stat: circuitNumber1GacPrunings=4151852
%%%mzn-stat: circuitNumber1PropagationsThatGacPruned=1716074
%%%mzn-stat: circuitNumber1TotalPruningHallSetSize=6204064
%%%mzn-stat: circuitNumber1NumberOfPruningExplanations=4151852
%%%mzn-stat: circuitNumber1MaxPruningHallSetSize=47
%%%mzn-stat: circuitNumber1TotalSccSizeAtPruning=3415008
%%%mzn-stat: circuitNumber1NumberOfSccPruningCalls=1716074
%%%mzn-stat: circuitNumber1TotalVarsInvolvedInPruning=3447055
%%%mzn-stat: circuitNumber1MaxValuesPrunedFromSingleVar=6
%%%mzn-stat: circuitNumber1HallCircuitChecks=5975237
%%%mzn-stat: circuitNumber1HallCircuitPrunings=732761
%%%mzn-stat: circuitNumber1CircuitPreventPrunings=1623438
%%%mzn-stat: AverageConflictSize=7.556310970223958
%%%mzn-stat: NumUnitNogoodsLearned=0
%%%mzn-stat: AverageLearnedNogoodLength=21.414077374526467
%%%mzn-stat: AverageBacktrackAmount=0
%%%mzn-stat: AverageLbd=21.313453196459065
%%%mzn-stat: 2AutonomousSearchNumBackupCalled=2819
%%%mzn-stat: 2AutonomousSearchNumPredicatesRemoved=0
%%%mzn-stat: 2AutonomousSearchNumCalls=2830
%%%mzn-stat: 2AutonomousSearchNumPredicatesAdded=6008
%%%mzn-stat: 2AutonomousSearchAverageSizeOfHeap=8.885159010600706
%%%mzn-stat: 2AutonomousSearchNumAssignedPredicatesEncountered=25145
%%%mzn-stat-end
maxleg = 255;
succ = array1d(1..50,[6, 14, 7, 15, 18, 46, 10, 11, 17, 34, 19, 33, 20, 37, 41, 35, 13, 2, 26, 22, 29, 21, 42, 25, 48, 4, 30, 16, 45, 40, 49, 8, 24, 28, 36, 31, 3, 47, 12, 1, 39, 32, 9, 43, 50, 23, 27, 5, 44, 38]);
% time elapsed: 259.45 s
----------
==========
% time elapsed: 259.45 s
%%%mzn-stat: initTime=0.007467427
%%%mzn-stat: objective=255
%%%mzn-stat: nodes=413222
%%%mzn-stat: restarts=0
%%%mzn-stat: peakDepth=314
%%%mzn-stat: solveTime=254.145810391
%%%mzn-stat: variables=670
%%%mzn-stat: propagators=452
%%%mzn-stat: failures=407577
%%%mzn-stat: propagations=11437093
%%%mzn-stat: nogoods=407577
%%%mzn-stat: numAtomicConstraintsPropagated=0
%%%mzn-stat: circuitNumber1PropagationsTotal=2338076
%%%mzn-stat: circuitNumber1CircuitConflicts=5334
%%%mzn-stat: circuitNumber1AlldiffConflicts=307
%%%mzn-stat: circuitNumber1TotalFixedEdgesAtConflict=230617
%%%mzn-stat: circuitNumber1NumberOfConflicts=5641
%%%mzn-stat: circuitNumber1GacPrunings=4151854
%%%mzn-stat: circuitNumber1PropagationsThatGacPruned=1716075
%%%mzn-stat: circuitNumber1TotalPruningHallSetSize=6204114
%%%mzn-stat: circuitNumber1NumberOfPruningExplanations=4151854
%%%mzn-stat: circuitNumber1MaxPruningHallSetSize=49
%%%mzn-stat: circuitNumber1TotalSccSizeAtPruning=3415105
%%%mzn-stat: circuitNumber1NumberOfSccPruningCalls=1716075
%%%mzn-stat: circuitNumber1TotalVarsInvolvedInPruning=3447057
%%%mzn-stat: circuitNumber1MaxValuesPrunedFromSingleVar=6
%%%mzn-stat: circuitNumber1HallCircuitChecks=5975238
%%%mzn-stat: circuitNumber1HallCircuitPrunings=732761
%%%mzn-stat: circuitNumber1CircuitPreventPrunings=1623439
%%%mzn-stat: AverageConflictSize=7.556297337680978
%%%mzn-stat: NumUnitNogoodsLearned=1
%%%mzn-stat: AverageLearnedNogoodLength=21.414027288095255
%%%mzn-stat: AverageBacktrackAmount=0
%%%mzn-stat: AverageLbd=21.3134033569117
%%%mzn-stat: 2AutonomousSearchNumBackupCalled=2819
%%%mzn-stat: 2AutonomousSearchNumPredicatesRemoved=0
%%%mzn-stat: 2AutonomousSearchNumCalls=2830
%%%mzn-stat: 2AutonomousSearchNumPredicatesAdded=6303
%%%mzn-stat: 2AutonomousSearchAverageSizeOfHeap=8.885159010600706
%%%mzn-stat: 2AutonomousSearchNumAssignedPredicatesEncountered=25145
%%%mzn-stat-end
